solving instance mcnd nodes c63 3 6 sinabc2
presolving:
(round 1, fast)       708 del vars, 708 del conss, 0 add conss, 30 chg bounds, 0 chg sides, 0 chg coeffs, 0 upgd conss, 0 impls, 0 clqs
(round 2, exhaustive) 708 del vars, 1386 del conss, 0 add conss, 30 chg bounds, 0 chg sides, 0 chg coeffs, 0 upgd conss, 0 impls, 0 clqs
(round 3, exhaustive) 708 del vars, 1386 del conss, 0 add conss, 30 chg bounds, 0 chg sides, 0 chg coeffs, 271200 upgd conss, 0 impls, 0 clqs
   (9.3s) probing: 51/678 (7.5%) - 0 fixings, 0 aggregations, 0 implications, 0 bound changes
   (9.3s) probing aborted: 50/50 successive totally useless probings
   (9.3s) symmetry computation started: requiring (bin +, int +, cont +), (fixed: bin -, int -, cont -)
   (11.5s) no symmetry present (symcode time: 0.76)
presolving (4 rounds: 4 fast, 3 medium, 3 exhaustive):
 708 deleted vars, 1386 deleted constraints, 0 added constraints, 30 tightened bounds, 0 added holes, 0 changed sides, 0 changed coefficients
 271200 implications, 0 cliques
presolved problem has 271938 variables (678 bin, 0 int, 0 impl, 271260 cont) and 283938 constraints
 271200 constraints of type <varbound>
  12708 constraints of type <linear>
     30 constraints of type <nonlinear>
Presolving Time: 10.14

 time | node  | left  |LP iter|LP it/n|mem/heur|mdpt |vars |cons |rows |cuts |sepa|confs|strbr|  dualbound   | primalbound  |  gap   | compl. 
t 513s|     1 |     0 |111743 |     - |  trysol|   0 | 272k| 283k| 284k|   0 |  0 |   0 |   0 |-7.671632e+02 | 2.151755e+05 |    Inf | unknown
 3600s|     1 |     0 |225199 |     - |  1713M |   0 | 272k| 283k| 284k|   0 |  0 |   0 |   0 |-7.671632e+02 | 2.151755e+05 |    Inf | unknown
(node 1) LP solver hit time limit in LP 3 -- using pseudo solution instead

SCIP Status        : solving was interrupted [time limit reached]
Solving Time (sec) : 3600.05
Solving Nodes      : 1
Primal Bound       : +2.15175452513325e+05 (1 solutions)
Dual Bound         : -7.67163230895996e+02
Gap                : infinite
primal_bound = 215175.4525133253, dual_bound = -767.1632308959961, gap = 100.35652915884934, time = 3607.86
